T=9;
V=13;
graph=[|true,true,false,true,false,false,false,false,false,false,false,false,false
|true,true,false,false,true,false,false,false,false,false,false,false,false
|false,false,true,false,false,true,false,false,false,false,false,false,false
|true,false,false,true,true,false,true,false,false,false,false,false,false
|false,true,false,true,true,false,false,true,false,false,false,false,false
|false,false,true,false,false,true,false,false,true,false,false,false,false
|false,false,false,true,false,false,true,true,false,true,false,false,false
|false,false,false,false,true,false,true,true,false,false,true,false,false
|false,false,false,false,false,true,false,false,true,false,false,false,true
|false,false,false,false,false,false,true,false,false,true,true,false,false
|false,false,false,false,false,false,false,true,false,true,true,true,false
|false,false,false,false,false,false,false,false,false,false,true,true,true
|false,false,false,false,false,false,false,false,true,false,false,true,true|];
A=4;
start=[1,5,7,11];
end=[3,6,9,13];
